<number of tasks>
50

<cycle time>
1000

<order strength>
0.199


<task times>
1 313
2 654
3 487
4 567
5 623
6 474
7 412
8 656
9 524
10 558
11 521
12 545
13 580
14 468
15 493
16 460
17 427
18 506
19 599
20 519
21 575
22 328
23 354
24 593
25 407
26 500
27 523
28 509
29 451
30 376
31 366
32 374
33 325
34 543
35 581
36 547
37 546
38 437
39 752
40 494
41 722
42 594
43 337
44 701
45 288
46 390
47 456
48 429
49 481
50 476

<precedence relations>
2,5
2,9
2,27
2,37
3,6
3,7
3,8
4,40
5,13
5,43
6,10
6,50
7,14
7,15
8,11
8,12
10,46
11,18
11,21
12,16
12,19
13,17
15,20
16,23
16,27
17,33
18,23
18,24
18,28
19,22
19,29
20,48
21,25
21,26
22,33
23,35
23,47
24,34
25,31
26,41
27,30
27,32
30,40
30,42
31,39
32,36
34,37
34,38
35,41
36,47
37,43
37,45
37,48
40,44
41,45
41,50
42,46
42,49

<end>
